proyfinal/src/viki/013/andrea/andrea-localstore/experimentInOfficeAgust.take6/worker_6/a1644863-a714-42c1-a8c2-f265f251ac7e.als.cnf.out
Reading from standard input... Use '--help' for help.
============================[ Problem Statistics ]=============================
|                                                                             |
|  Number of variables:         87638                                         |
|  Number of clauses:          161767                                         |
|  Parse time:                   0.04 s                                       |
|                                                                             |
============================[ Search Statistics ]==============================
| Conflicts |          ORIGINAL         |          LEARNT          | Progress |
|           |    Vars  Clauses Literals |    Limit  Clauses Lit/Cl |          |
===============================================================================
|       100 |   63734   110071   275249 |    40359      100      7 | 27.276 % |
|       250 |   63715   109995   275073 |    44395      248     64 | 27.298 % |
|       475 |   63715   109995   275073 |    48834      473     68 | 27.298 % |
|       812 |   63715   109995   275073 |    53718      810     79 | 27.298 % |
|      1318 |   63715   109995   275073 |    59090     1316     85 | 27.298 % |
|      2077 |   63714   109951   274983 |    64999     2073     72 | 27.299 % |
|      3216 |   63656   109714   274433 |    71499     2896     89 | 27.365 % |
|      4924 |   63551   109292   273449 |    78648     4597     84 | 27.485 % |
|      7486 |   63466   108974   272608 |    86513     7082     83 | 27.582 % |
===============================================================================
restarts              : 45
conflicts             : 10299          (5989 /sec)
decisions             : 37466          (0.00 % random) (21788 /sec)
propagations          : 16844445       (9795685 /sec)
conflict literals     : 788626         (53.10 % deleted)
Memory used           : 28.36 MB
CPU time              : 1.71958 s

UNSATISFIABLE
